solution status: gap limit reached
objective value:                          74106.33403
y#8                                                 1 	(obj:5700)
y#11                                                1 	(obj:5700)
y#21                                                1 	(obj:5700)
y#22                                                1 	(obj:5700)
y#23                                                1 	(obj:5700)
y#25                                                1 	(obj:5700)
y#28                                                1 	(obj:5700)
y#30                                                1 	(obj:5700)
y#31                                                1 	(obj:5700)
y#32                                                1 	(obj:5700)
y#42                                                1 	(obj:5700)
y#55                                                1 	(obj:5700)
y#60                                                1 	(obj:5700)
x#1#11                                              1 	(obj:0.00833)
x#2#22                                              1 	(obj:0.01309)
x#3#42                                              1 	(obj:0.01717)
x#4#60                                              1 	(obj:0.11424)
x#5#28                                              1 	(obj:0.03519)
x#6#23                                              1 	(obj:0.01938)
x#7#22                                              1 	(obj:0.01853)
x#8#21                                              1 	(obj:0.02125)
x#9#11                                              1 	(obj:0.03349)
x#10#22                                             1 	(obj:0.03332)
x#11#21                                             1 	(obj:0.02482)
x#12#31                                             1 	(obj:0.01394)
x#13#23                                             1 	(obj:0.01343)
x#14#25                                             1 	(obj:0.01938)
x#15#42                                             1 	(obj:0.04573)
x#16#11                                             1 	(obj:0.00493)
x#17#22                                             1 	(obj:0.1445)
x#18#32                                             1 	(obj:0.01105)
x#19#42                                             1 	(obj:0.02907)
x#20#55                                             1 	(obj:0.12274)
x#21#60                                             1 	(obj:0.1156)
x#22#28                                             1 	(obj:0.01938)
x#23#31                                             1 	(obj:0.02839)
x#24#21                                             1 	(obj:0.05219)
x#25#42                                             1 	(obj:0.01241)
x#26#30                                             1 	(obj:0.02329)
x#27#28                                             1 	(obj:0.01989)
x#28#23                                             1 	(obj:0.04369)
x#29#60                                             1 	(obj:0.06137)
x#30#32                                             1 	(obj:0.02873)
x#31#42                                             1 	(obj:0.02533)
x#32#31                                             1 	(obj:0.01122)
x#33#21                                             1 	(obj:0.0221)
x#34#11                                             1 	(obj:0.03264)
x#35#28                                             1 	(obj:0.00476)
x#36#31                                             1 	(obj:0.00578)
x#37#32                                             1 	(obj:0.02601)
x#38#21                                             1 	(obj:0.02397)
x#39#11                                             1 	(obj:0.03553)
x#40#25                                             1 	(obj:0.04063)
x#41#60                                             1 	(obj:0.11968)
x#42#55                                             1 	(obj:0.12189)
x#43#55                                             1 	(obj:0.13617)
x#44#42                                             1 	(obj:0.00714)
x#45#32                                             1 	(obj:0.00816)
x#46#11                                             1 	(obj:0.03111)
x#47#23                                             1 	(obj:0.03094)
x#48#30                                             1 	(obj:0.0119)
x#49#28                                             1 	(obj:0.02074)
x#50#25                                             1 	(obj:0.01292)
x#51#32                                             1 	(obj:0.03553)
x#52#22                                             1 	(obj:0.01904)
x#53#55                                             1 	(obj:0.14739)
x#54#60                                             1 	(obj:0.10421)
x#55#55                                             1 	(obj:0.1428)
x#56#8                                              1 	(obj:0.05678)
x#57#22                                             1 	(obj:0.03961)
x#58#55                                             1 	(obj:0.17102)
x#59#22                                             1 	(obj:0.02278)
x#60#8                                              1 	(obj:0.03825)
x#61#21                                             1 	(obj:0.05406)
x#62#32                                             1 	(obj:0.12563)
x#63#21                                             1 	(obj:0.03893)
x#64#21                                             1 	(obj:0.05644)
x#65#28                                             1 	(obj:0.01462)
x#66#22                                             1 	(obj:0.0442)
x#67#25                                             1 	(obj:0.04148)
x#68#42                                             1 	(obj:0.02414)
x#69#31                                             1 	(obj:0.03791)
x#70#30                                             1 	(obj:0.03519)
x#71#28                                             1 	(obj:0.02023)
x#72#30                                             1 	(obj:0.01989)
x#73#8                                              1 	(obj:0.03859)
x#74#8                                              1 	(obj:0.05338)
x#75#60                                             1 	(obj:0.09435)
x#76#11                                             1 	(obj:0.02992)
x#77#21                                             1 	(obj:0.01258)
x#78#11                                             1 	(obj:0.0102)
x#79#30                                             1 	(obj:0.01632)
x#80#22                                             1 	(obj:0.08942)
x#81#11                                             1 	(obj:0.01751)
x#82#11                                             1 	(obj:0.01224)
x#83#60                                             1 	(obj:0.09554)
x#84#30                                             1 	(obj:0.02737)
x#85#11                                             1 	(obj:0.04131)
x#86#55                                             1 	(obj:0.13311)
x#87#23                                             1 	(obj:0.01326)
x#88#60                                             1 	(obj:0.09809)
x#89#31                                             1 	(obj:0.01071)
x#90#25                                             1 	(obj:0.04607)
x#91#55                                             1 	(obj:0.14535)
x#92#8                                              1 	(obj:0.04573)
x#93#31                                             1 	(obj:0.01836)
x#94#42                                             1 	(obj:0.01394)
x#95#8                                              1 	(obj:0.02754)
x#96#32                                             1 	(obj:0.0306)
x#97#22                                             1 	(obj:0.00765)
x#98#30                                             1 	(obj:0.02295)
x#99#25                                             1 	(obj:0.05015)
x#100#21                                            1 	(obj:0.0187)
x#101#23                                            1 	(obj:0.06766)
x#102#21                                            1 	(obj:0.01054)
x#103#28                                            1 	(obj:0.05831)
x#104#55                                            1 	(obj:0.14076)
x#105#55                                            1 	(obj:0.12342)
x#106#23                                            1 	(obj:0.00442)
x#107#25                                            1 	(obj:0.04556)
x#108#32                                            1 	(obj:0.04182)
x#109#25                                            1 	(obj:0.01275)
x#110#28                                            1 	(obj:0.02482)
x#111#31                                            1 	(obj:0.0391)
x#112#8                                             1 	(obj:0.02431)
x#113#60                                            1 	(obj:0.07684)
x#114#8                                             1 	(obj:0.02414)
x#115#8                                             1 	(obj:0.0221)
x#116#55                                            1 	(obj:0.17663)
x#117#11                                            1 	(obj:0.03349)
x#118#28                                            1 	(obj:0.02023)
x#119#28                                            1 	(obj:0.00765)
x#120#25                                            1 	(obj:0.01972)
x#121#32                                            1 	(obj:0.03536)
x#122#60                                            1 	(obj:0.10523)
x#123#22                                            1 	(obj:0.03264)
x#124#31                                            1 	(obj:0.01683)
x#125#60                                            1 	(obj:0.0935)
x#126#8                                             1 	(obj:0.06494)
x#127#8                                             1 	(obj:0.02958)
x#128#60                                            1 	(obj:0.0459)
x#129#32                                            1 	(obj:0.01275)
x#130#30                                            1 	(obj:0.00986)
x#131#30                                            1 	(obj:0.03366)
x#132#42                                            1 	(obj:0.01632)
x#133#23                                            1 	(obj:0.05593)
x#134#21                                            1 	(obj:0.00578)
x#135#28                                            1 	(obj:0.02397)
x#136#23                                            1 	(obj:0.01751)
x#137#30                                            1 	(obj:0.00952)
x#138#42                                            1 	(obj:0.03757)
x#139#42                                            1 	(obj:0.01751)
x#140#32                                            1 	(obj:0.01717)
x#141#23                                            1 	(obj:0.01785)
x#142#8                                             1 	(obj:0.02431)
x#143#25                                            1 	(obj:0.02533)
x#144#42                                            1 	(obj:0.01309)
x#145#25                                            1 	(obj:0.04794)
x#146#31                                            1 	(obj:0.03757)
x#147#23                                            1 	(obj:0.02261)
x#148#23                                            1 	(obj:0.03842)
x#149#31                                            1 	(obj:0.02295)
x#150#30                                            1 	(obj:0.03995)
